experiment/data/hgs-res/Vrp-Set-X-n148/Vrp-Set-X-n148-hgs/0.hgs1.vrp
NAME : 0
COMMENT : CVRP Instance
TYPE : CVRP
DIMENSION : 148
EDGE_WEIGHT_TYPE : EUC_2D
CAPACITY : 18
NODE_COORD_SECTION
1	707.0	633.0
2	405.0	122.0
3	811.0	419.0
4	11.0	667.0
5	336.0	612.0
6	366.0	50.0
7	98.0	836.0
8	414.0	996.0
9	243.0	713.0
10	100.0	232.0
11	891.0	946.0
12	132.0	204.0
13	25.0	642.0
14	994.0	18.0
15	636.0	897.0
16	214.0	651.0
17	108.0	619.0
18	882.0	399.0
19	863.0	607.0
20	409.0	585.0
21	247.0	882.0
22	553.0	507.0
23	677.0	258.0
24	673.0	644.0
25	25.0	182.0
26	251.0	111.0
27	263.0	799.0
28	660.0	359.0
29	351.0	288.0
30	172.0	127.0
31	382.0	441.0
32	231.0	650.0
33	966.0	485.0
34	964.0	107.0
35	876.0	164.0
36	949.0	328.0
37	936.0	70.0
38	229.0	744.0
39	161.0	214.0
40	581.0	594.0
41	154.0	860.0
42	23.0	374.0
43	736.0	600.0
44	594.0	542.0
45	846.0	684.0
46	355.0	471.0
47	675.0	597.0
48	663.0	653.0
49	61.0	889.0
50	685.0	150.0
51	129.0	248.0
52	161.0	301.0
53	180.0	836.0
54	427.0	670.0
55	833.0	860.0
56	669.0	251.0
57	411.0	403.0
58	450.0	926.0
59	591.0	505.0
60	468.0	157.0
61	288.0	484.0
62	574.0	955.0
63	795.0	521.0
64	41.0	65.0
65	175.0	486.0
66	74.0	436.0
67	907.0	13.0
68	579.0	912.0
69	765.0	835.0
70	176.0	189.0
71	972.0	351.0
72	470.0	22.0
73	577.0	469.0
74	561.0	672.0
75	110.0	670.0
76	811.0	614.0
77	460.0	344.0
78	862.0	486.0
79	22.0	369.0
80	898.0	295.0
81	89.0	934.0
82	89.0	973.0
83	896.0	544.0
84	503.0	364.0
85	765.0	469.0
86	832.0	504.0
87	702.0	482.0
88	481.0	321.0
89	827.0	627.0
90	541.0	599.0
91	111.0	694.0
92	891.0	231.0
93	884.0	324.0
94	555.0	436.0
95	186.0	502.0
96	442.0	319.0
97	823.0	255.0
98	367.0	339.0
99	572.0	872.0
100	715.0	620.0
101	134.0	794.0
102	85.0	912.0
103	191.0	561.0
104	79.0	911.0
105	924.0	508.0
106	132.0	871.0
107	962.0	682.0
108	783.0	515.0
109	170.0	677.0
110	847.0	462.0
111	840.0	535.0
112	732.0	383.0
113	904.0	368.0
114	980.0	376.0
115	281.0	669.0
116	84.0	809.0
117	114.0	715.0
118	83.0	648.0
119	800.0	540.0
120	45.0	944.0
121	84.0	965.0
122	465.0	407.0
123	779.0	427.0
124	854.0	305.0
125	518.0	500.0
126	216.0	721.0
127	597.0	643.0
128	847.0	501.0
129	859.0	298.0
130	954.0	764.0
131	339.0	814.0
132	142.0	552.0
133	400.0	366.0
134	21.0	341.0
135	802.0	487.0
136	67.0	772.0
137	897.0	552.0
138	847.0	538.0
139	189.0	530.0
140	930.0	232.0
141	472.0	396.0
142	92.0	325.0
143	877.0	475.0
144	451.0	370.0
145	1.0	416.0
146	712.0	100.0
147	869.0	270.0
148	100.0	342.0
DEMAND_SECTION
1	0
2	10
3	4
4	7
5	4
6	8
7	1
8	4
9	1
10	5
11	5
12	1
13	4
14	4
15	4
16	2
17	5
18	3
19	10
20	1
21	2
22	9
23	5
24	5
25	2
26	1
27	7
28	10
29	5
30	10
31	10
32	2
33	9
34	1
35	10
36	9
37	2
38	3
39	4
40	4
41	9
42	10
43	5
44	4
45	10
46	1
47	5
48	8
49	5
50	1
51	6
52	10
53	1
54	6
55	4
56	3
57	7
58	2
59	8
60	6
61	4
62	4
63	2
64	3
65	5
66	6
67	4
68	8
69	2
70	3
71	3
72	5
73	6
74	10
75	8
76	8
77	4
78	6
79	5
80	1
81	5
82	9
83	2
84	8
85	7
86	6
87	5
88	6
89	7
90	10
91	10
92	10
93	1
94	9
95	3
96	10
97	3
98	7
99	2
100	8
101	2
102	5
103	1
104	6
105	4
106	9
107	10
108	8
109	5
110	6
111	4
112	1
113	10
114	9
115	5
116	8
117	6
118	6
119	8
120	5
121	5
122	7
123	9
124	6
125	2
126	3
127	2
128	4
129	7
130	6
131	9
132	2
133	10
134	5
135	6
136	6
137	7
138	7
139	7
140	8
141	9
142	7
143	2
144	6
145	10
146	3
147	10
148	5
DEPOT_SECTION
1
-1
EOF
