experiment/data/hgs-res/Vrp-Set-X-n148/Vrp-Set-X-n148-hgs/0.hgs1.tour
Route #1: 46 47 23
Route #2: 64 138 102 114
Route #3: 39 89
Route #4: 131 144 65
Route #5: 94 41 78
Route #6: 4 60 51
Route #7: 19 133 141 147
Route #8: 30 56
Route #9: 45 50 9 24 63 11
Route #10: 132 97
Route #11: 140 121 124
Route #12: 38 69 29 25
Route #13: 21 93
Route #14: 72 58 43
Route #15: 83 76 143
Route #16: 87 95
Route #17: 71 5 28
Route #18: 1 59
Route #19: 22 55 27
Route #20: 96 33 36 13 66 145 49
Route #21: 2 122 86
Route #22: 111 146 128
Route #23: 139 34
Route #24: 92 79 91 123
Route #25: 42 134 84
Route #26: 99
Route #27: 107 118
Route #28: 17 112 70 142
Route #29: 35 113
Route #30: 62 109 77 127
Route #31: 85 110 137
Route #32: 82 32 104
Route #33: 75 18
Route #34: 136 106
Route #35: 88 44
Route #36: 129 10 54 68
Route #37: 14 61 67 98
Route #38: 7 81 120
Route #39: 57 130 26
Route #40: 20 80 119 48 52
Route #41: 40 105
Route #42: 37 125 6 103 101
Route #43: 31 135 115 100
Route #44: 73 53 126
Route #45: 15 90 116
Route #46: 8 3 12 117
Route #47: 16 74 108
Cost 43452.9
